(set-logic QF_UF)
(declare-fun car () Bool)
(declare-fun circuit () Bool)
(declare-fun clk () Bool)
(declare-fun prt () Bool)
(assert (= (= clk (not (not clk))) (= clk clk)))
(assert (= (= clk clk) true))
(assert (not (= (= clk (not (not clk))) true)))
(check-sat)
(exit)
